PointerNetwork/Ptr_Net_TSPTW/benchmark/n20w40/n20w40.001.txt.solution
1 6 14 18 7 12 20 9 5 8 2 13 3 10 16 19 17 4 15 11 21 
254
